p cnf 793
-11 -249
-12 -252
-13 -255
-14 -258
-15 -261
-16 -264
-17 -267
-18 -270
-19 -273
-20 -276
-21 277
-22 278
-23 279
-24 280
-25 281
-26 282
-27 283
-28 284
-29 -12
-29 -13
12 13 29
-30 -14
-30 -15
14 15 30
-31 -16
-31 -17
16 17 31
-32 -18
-32 -19
18 19 32
-33 -20
-33 -21
20 21 33
-34 -22
-34 -23
22 23 34
-35 -24
-35 -25
24 25 35
-36 -26
-36 -27
26 27 36
-37 29
-37 30
-29 -30 37
-38 31
-38 32
-31 -32 38
-39 33
-39 34
-33 -34 39
-40 35
-40 36
-35 -36 40
-41 37
-41 38
-37 -38 41
-42 39
-42 40
-39 -40 42
-43 41
-43 42
-41 -42 43
-44 -28
-44 43
28 -43 44
-45 -11
-45 12
11 -12 45
-46 11
-46 -12
-11 12 46
-47 -45
-47 -46
45 46 47
-48 11
-48 12
-11 -12 48
-49 -11
-49 -47
11 47 49
-50 11
-50 47
-11 -47 50
-51 -49
-51 -50
49 50 51
-52 11
-52 -47
-11 47 52
-53 -48
-53 -52
48 52 53
-54 -12
-54 13
12 -13 54
-55 12
-55 -13
-12 13 55
-56 -54
-56 -55
54 55 56
-57 12
-57 13
-12 -13 57
-58 53
-58 -56
-53 56 58
-59 -53
-59 56
53 -56 59
-60 -58
-60 -59
58 59 60
-61 -53
-61 -56
53 56 61
-62 -57
-62 -61
57 61 62
-63 -13
-63 14
13 -14 63
-64 13
-64 -14
-13 14 64
-65 -63
-65 -64
63 64 65
-66 13
-66 14
-13 -14 66
-67 62
-67 -65
-62 65 67
-68 -62
-68 65
62 -65 68
-69 -67
-69 -68
67 68 69
-70 -62
-70 -65
62 65 70
-71 -66
-71 -70
66 70 71
-72 -14
-72 15
14 -15 72
-73 14
-73 -15
-14 15 73
-74 -72
-74 -73
72 73 74
-75 14
-75 15
-14 -15 75
-76 71
-76 -74
-71 74 76
-77 -71
-77 74
71 -74 77
-78 -76
-78 -77
76 77 78
-79 -71
-79 -74
71 74 79
-80 -75
-80 -79
75 79 80
-81 -15
-81 16
15 -16 81
-82 15
-82 -16
-15 16 82
-83 -81
-83 -82
81 82 83
-84 15
-84 16
-15 -16 84
-85 80
-85 -83
-80 83 85
-86 -80
-86 83
80 -83 86
-87 -85
-87 -86
85 86 87
-88 -80
-88 -83
80 83 88
-89 -84
-89 -88
84 88 89
-90 -16
-90 17
16 -17 90
-91 16
-91 -17
-16 17 91
-92 -90
-92 -91
90 91 92
-93 16
-93 17
-16 -17 93
-94 89
-94 -92
-89 92 94
-95 -89
-95 92
89 -92 95
-96 -94
-96 -95
94 95 96
-97 -89
-97 -92
89 92 97
-98 -93
-98 -97
93 97 98
-99 -17
-99 18
17 -18 99
-100 17
-100 -18
-17 18 100
-101 -99
-101 -100
99 100 101
-102 17
-102 18
-17 -18 102
-103 98
-103 -101
-98 101 103
-104 -98
-104 101
98 -101 104
-105 -103
-105 -104
103 104 105
-106 -98
-106 -101
98 101 106
-107 -102
-107 -106
102 106 107
-108 -18
-108 19
18 -19 108
-109 18
-109 -19
-18 19 109
-110 -108
-110 -109
108 109 110
-111 18
-111 19
-18 -19 111
-112 107
-112 -110
-107 110 112
-113 -107
-113 110
107 -110 113
-114 -112
-114 -113
112 113 114
-115 -107
-115 -110
107 110 115
-116 -111
-116 -115
111 115 116
-117 -19
-117 20
19 -20 117
-118 19
-118 -20
-19 20 118
-119 -117
-119 -118
117 118 119
-120 19
-120 20
-19 -20 120
-121 116
-121 -119
-116 119 121
-122 -116
-122 119
116 -119 122
-123 -121
-123 -122
121 122 123
-124 -116
-124 -119
116 119 124
-125 -120
-125 -124
120 124 125
-126 -20
-126 21
20 -21 126
-127 20
-127 -21
-20 21 127
-128 -126
-128 -127
126 127 128
-129 20
-129 21
-20 -21 129
-130 125
-130 -128
-125 128 130
-131 -125
-131 128
125 -128 131
-132 -130
-132 -131
130 131 132
-133 -125
-133 -128
125 128 133
-134 -129
-134 -133
129 133 134
-135 -21
-135 22
21 -22 135
-136 21
-136 -22
-21 22 136
-137 -135
-137 -136
135 136 137
-138 21
-138 22
-21 -22 138
-139 134
-139 -137
-134 137 139
-140 -134
-140 137
134 -137 140
-141 -139
-141 -140
139 140 141
-142 -134
-142 -137
134 137 142
-143 -138
-143 -142
138 142 143
-144 -22
-144 23
22 -23 144
-145 22
-145 -23
-22 23 145
-146 -144
-146 -145
144 145 146
-147 22
-147 23
-22 -23 147
-148 143
-148 -146
-143 146 148
-149 -143
-149 146
143 -146 149
-150 -148
-150 -149
148 149 150
-151 -143
-151 -146
143 146 151
-152 -147
-152 -151
147 151 152
-153 -23
-153 24
23 -24 153
-154 23
-154 -24
-23 24 154
-155 -153
-155 -154
153 154 155
-156 23
-156 24
-23 -24 156
-157 152
-157 -155
-152 155 157
-158 -152
-158 155
152 -155 158
-159 -157
-159 -158
157 158 159
-160 -152
-160 -155
152 155 160
-161 -156
-161 -160
156 160 161
-162 -24
-162 25
24 -25 162
-163 24
-163 -25
-24 25 163
-164 -162
-164 -163
162 163 164
-165 24
-165 25
-24 -25 165
-166 161
-166 -164
-161 164 166
-167 -161
-167 164
161 -164 167
-168 -166
-168 -167
166 167 168
-169 -161
-169 -164
161 164 169
-170 -165
-170 -169
165 169 170
-171 -25
-171 26
25 -26 171
-172 25
-172 -26
-25 26 172
-173 -171
-173 -172
171 172 173
-174 25
-174 26
-25 -26 174
-175 170
-175 -173
-170 173 175
-176 -170
-176 173
170 -173 176
-177 -175
-177 -176
175 176 177
-178 -170
-178 -173
170 173 178
-179 -174
-179 -178
174 178 179
-180 -26
-180 27
26 -27 180
-181 26
-181 -27
-26 27 181
-182 -180
-182 -181
180 181 182
-183 26
-183 27
-26 -27 183
-184 179
-184 -182
-179 182 184
-185 -179
-185 182
179 -182 185
-186 -184
-186 -185
184 185 186
-187 -179
-187 -182
179 182 187
-188 -183
-188 -187
183 187 188
-189 -27
-189 28
27 -28 189
-190 27
-190 -28
-27 28 190
-191 -189
-191 -190
189 190 191
-192 27
-192 28
-27 -28 192
-193 188
-193 -191
-188 191 193
-194 -188
-194 191
188 -191 194
-195 -193
-195 -194
193 194 195
-196 -188
-196 -191
188 191 196
-197 -192
-197 -196
192 196 197
-198 11
-198 -51
-11 51 198
-199 -11
-199 13
11 -13 199
-200 -198
-200 -199
198 199 200
-201 11
-201 -60
-11 60 201
-202 -11
-202 14
11 -14 202
-203 -201
-203 -202
201 202 203
-204 11
-204 -69
-11 69 204
-205 -11
-205 15
11 -15 205
-206 -204
-206 -205
204 205 206
-207 11
-207 -78
-11 78 207
-208 -11
-208 16
11 -16 208
-209 -207
-209 -208
207 208 209
-210 11
-210 -87
-11 87 210
-211 -11
-211 17
11 -17 211
-212 -210
-212 -211
210 211 212
-213 11
-213 -96
-11 96 213
-214 -11
-214 18
11 -18 214
-215 -213
-215 -214
213 214 215
-216 11
-216 -105
-11 105 216
-217 -11
-217 19
11 -19 217
-218 -216
-218 -217
216 217 218
-219 11
-219 -114
-11 114 219
-220 -11
-220 20
11 -20 220
-221 -219
-221 -220
219 220 221
-222 11
-222 -123
-11 123 222
-223 -11
-223 21
11 -21 223
-224 -222
-224 -223
222 223 224
-225 11
-225 -132
-11 132 225
-226 -11
-226 22
11 -22 226
-227 -225
-227 -226
225 226 227
-228 11
-228 -141
-11 141 228
-229 -11
-229 23
11 -23 229
-230 -228
-230 -229
228 229 230
-231 11
-231 -150
-11 150 231
-232 -11
-232 24
11 -24 232
-233 -231
-233 -232
231 232 233
-234 11
-234 -159
-11 159 234
-235 -11
-235 25
11 -25 235
-236 -234
-236 -235
234 235 236
-237 11
-237 -168
-11 168 237
-238 -11
-238 26
11 -26 238
-239 -237
-239 -238
237 238 239
-240 11
-240 -177
-11 177 240
-241 -11
-241 27
11 -27 241
-242 -240
-242 -241
240 241 242
-243 11
-243 -186
-11 186 243
-244 -11
-244 28
11 -28 244
-245 -243
-245 -244
243 244 245
-246 11
-246 -195
-11 195 246
-247 1
-247 44
-1 -44 247
-248 -44
-248 45
44 -45 248
-249 -247
-249 -248
247 248 249
-250 2
-250 44
-2 -44 250
-251 -44
-251 -200
44 200 251
-252 -250
-252 -251
250 251 252
-253 3
-253 44
-3 -44 253
-254 -44
-254 -203
44 203 254
-255 -253
-255 -254
253 254 255
-256 4
-256 44
-4 -44 256
-257 -44
-257 -206
44 206 257
-258 -256
-258 -257
256 257 258
-259 5
-259 44
-5 -44 259
-260 -44
-260 -209
44 209 260
-261 -259
-261 -260
259 260 261
-262 6
-262 44
-6 -44 262
-263 -44
-263 -212
44 212 263
-264 -262
-264 -263
262 263 264
-265 7
-265 44
-7 -44 265
-266 -44
-266 -215
44 215 266
-267 -265
-267 -266
265 266 267
-268 8
-268 44
-8 -44 268
-269 -44
-269 -218
44 218 269
-270 -268
-270 -269
268 269 270
-271 9
-271 44
-9 -44 271
-272 -44
-272 -221
44 221 272
-273 -271
-273 -272
271 272 273
-274 10
-274 44
-10 -44 274
-275 -44
-275 -224
44 224 275
-276 -274
-276 -275
274 275 276
-277 -44
-277 -227
44 227 277
-278 -44
-278 -230
44 230 278
-279 -44
-279 -233
44 233 279
-280 -44
-280 -236
44 236 280
-281 -44
-281 -239
44 239 281
-282 -44
-282 -242
44 242 282
-283 -44
-283 -245
44 245 283
-284 -44
-284 246
44 -246 284
-285 -28
-285 197
28 -197 285
-286 11
-286 -285
-11 285 286
286
